# Directed edges for Hornet sequential baseline: V=100 E=794
0 1 1
0 2 1
0 3 1
0 4 1
0 5 1
0 6 1
0 7 1
0 8 1
0 9 1
0 10 1
0 11 1
0 12 1
0 13 1
0 14 1
0 15 1
0 16 1
0 17 1
0 18 1
0 19 1
0 20 1
0 21 1
0 22 1
0 23 1
0 24 1
0 25 1
0 26 1
0 27 1
0 28 1
0 29 1
0 30 1
0 31 1
0 32 1
0 33 1
0 34 1
0 35 1
0 36 1
0 37 1
0 38 1
0 39 1
0 40 1
0 41 1
0 42 1
0 43 1
0 44 1
0 45 1
0 46 1
0 47 1
0 48 1
0 49 1
0 50 1
0 51 1
0 52 1
0 53 1
0 54 1
0 55 1
0 56 1
0 57 1
0 58 1
0 59 1
0 60 1
0 61 1
0 62 1
0 63 1
0 64 1
0 65 1
0 66 1
0 67 1
0 68 1
0 69 1
0 70 1
0 71 1
0 72 1
0 73 1
0 74 1
0 75 1
0 76 1
0 77 1
0 78 1
0 79 1
0 80 1
0 81 1
0 82 1
0 83 1
0 84 1
0 85 1
0 86 1
0 87 1
0 88 1
0 89 1
0 90 1
0 91 1
0 92 1
0 93 1
0 94 1
0 95 1
0 96 1
0 97 1
0 98 1
0 99 1
1 0 1
1 97 1
2 0 1
2 33 1
2 34 1
2 35 1
2 39 1
2 41 1
2 43 1
2 48 1
2 49 1
3 0 1
4 0 1
5 0 1
5 72 1
5 73 1
5 74 1
5 75 1
5 93 1
5 96 1
6 0 1
6 67 1
6 89 1
6 90 1
6 91 1
6 92 1
6 93 1
6 96 1
7 0 1
7 8 1
7 9 1
7 18 1
7 67 1
8 0 1
8 7 1
8 18 1
9 0 1
9 7 1
9 18 1
9 93 1
10 0 1
10 36 1
10 71 1
11 0 1
11 12 1
11 13 1
11 14 1
11 15 1
11 99 1
12 0 1
12 11 1
12 16 1
12 17 1
12 30 1
12 70 1
12 86 1
12 87 1
13 0 1
13 11 1
13 14 1
13 15 1
13 78 1
13 79 1
14 0 1
14 11 1
14 13 1
15 0 1
15 11 1
15 13 1
15 99 1
16 0 1
16 12 1
16 17 1
16 30 1
16 70 1
16 86 1
16 87 1
17 0 1
17 12 1
17 16 1
17 27 1
17 30 1
17 70 1
17 86 1
17 87 1
17 93 1
18 0 1
18 7 1
18 8 1
18 9 1
19 0 1
20 0 1
20 21 1
20 22 1
20 53 1
20 98 1
21 0 1
21 20 1
21 22 1
21 53 1
21 68 1
21 69 1
21 98 1
22 0 1
22 20 1
22 21 1
22 53 1
22 98 1
23 0 1
23 24 1
23 25 1
23 26 1
24 0 1
24 23 1
24 25 1
24 26 1
25 0 1
25 23 1
25 24 1
25 26 1
26 0 1
26 23 1
26 24 1
26 25 1
26 74 1
27 0 1
27 17 1
27 93 1
27 95 1
28 0 1
28 81 1
29 0 1
29 74 1
29 80 1
29 99 1
30 0 1
30 12 1
30 16 1
30 17 1
30 70 1
30 86 1
30 87 1
31 0 1
31 96 1
32 0 1
33 0 1
33 2 1
33 34 1
33 35 1
33 39 1
33 41 1
33 43 1
33 48 1
33 49 1
33 83 1
34 0 1
34 2 1
34 33 1
34 35 1
34 39 1
34 41 1
34 43 1
34 48 1
34 49 1
34 71 1
35 0 1
35 2 1
35 33 1
35 34 1
35 39 1
35 41 1
35 43 1
35 48 1
35 49 1
35 64 1
36 0 1
36 10 1
36 37 1
36 38 1
36 39 1
36 40 1
36 41 1
36 42 1
36 43 1
36 44 1
36 45 1
36 46 1
36 47 1
36 48 1
36 50 1
37 0 1
37 36 1
37 38 1
37 39 1
37 40 1
37 41 1
37 42 1
37 43 1
37 44 1
37 45 1
37 46 1
37 47 1
37 48 1
37 50 1
38 0 1
38 36 1
38 37 1
38 39 1
38 40 1
38 41 1
38 42 1
38 43 1
38 44 1
38 45 1
38 46 1
38 47 1
38 48 1
38 50 1
39 0 1
39 2 1
39 33 1
39 34 1
39 35 1
39 36 1
39 37 1
39 38 1
39 40 1
39 41 1
39 42 1
39 43 1
39 44 1
39 45 1
39 46 1
39 47 1
39 48 1
39 49 1
39 50 1
39 56 1
39 57 1
39 76 1
40 0 1
40 36 1
40 37 1
40 38 1
40 39 1
40 41 1
40 42 1
40 43 1
40 44 1
40 45 1
40 46 1
40 47 1
40 48 1
40 50 1
41 0 1
41 2 1
41 33 1
41 34 1
41 35 1
41 36 1
41 37 1
41 38 1
41 39 1
41 40 1
41 42 1
41 43 1
41 44 1
41 45 1
41 46 1
41 47 1
41 48 1
41 49 1
41 50 1
41 56 1
41 57 1
41 76 1
42 0 1
42 36 1
42 37 1
42 38 1
42 39 1
42 40 1
42 41 1
42 43 1
42 44 1
42 45 1
42 46 1
42 47 1
42 48 1
42 50 1
43 0 1
43 2 1
43 33 1
43 34 1
43 35 1
43 36 1
43 37 1
43 38 1
43 39 1
43 40 1
43 41 1
43 42 1
43 44 1
43 45 1
43 46 1
43 47 1
43 48 1
43 49 1
43 50 1
44 0 1
44 36 1
44 37 1
44 38 1
44 39 1
44 40 1
44 41 1
44 42 1
44 43 1
44 45 1
44 46 1
44 47 1
44 48 1
44 50 1
44 56 1
45 0 1
45 36 1
45 37 1
45 38 1
45 39 1
45 40 1
45 41 1
45 42 1
45 43 1
45 44 1
45 46 1
45 47 1
45 48 1
45 50 1
46 0 1
46 36 1
46 37 1
46 38 1
46 39 1
46 40 1
46 41 1
46 42 1
46 43 1
46 44 1
46 45 1
46 47 1
46 48 1
46 50 1
47 0 1
47 36 1
47 37 1
47 38 1
47 39 1
47 40 1
47 41 1
47 42 1
47 43 1
47 44 1
47 45 1
47 46 1
47 48 1
47 50 1
48 0 1
48 2 1
48 33 1
48 34 1
48 35 1
48 36 1
48 37 1
48 38 1
48 39 1
48 40 1
48 41 1
48 42 1
48 43 1
48 44 1
48 45 1
48 46 1
48 47 1
48 49 1
48 50 1
48 51 1
48 52 1
48 53 1
48 58 1
48 59 1
48 60 1
48 61 1
48 62 1
48 63 1
48 64 1
48 84 1
49 0 1
49 2 1
49 33 1
49 34 1
49 35 1
49 39 1
49 41 1
49 43 1
49 48 1
49 71 1
50 0 1
50 36 1
50 37 1
50 38 1
50 39 1
50 40 1
50 41 1
50 42 1
50 43 1
50 44 1
50 45 1
50 46 1
50 47 1
50 48 1
51 0 1
51 48 1
52 0 1
52 48 1
52 53 1
53 0 1
53 20 1
53 21 1
53 22 1
53 48 1
53 52 1
53 65 1
53 77 1
53 98 1
54 0 1
55 0 1
56 0 1
56 39 1
56 41 1
56 44 1
56 57 1
56 76 1
57 0 1
57 39 1
57 41 1
57 56 1
57 76 1
58 0 1
58 48 1
58 59 1
58 60 1
58 61 1
58 62 1
58 63 1
58 64 1
58 84 1
59 0 1
59 48 1
59 58 1
59 60 1
59 61 1
59 62 1
59 63 1
59 64 1
59 84 1
60 0 1
60 48 1
60 58 1
60 59 1
60 61 1
60 62 1
60 63 1
60 64 1
60 84 1
61 0 1
61 48 1
61 58 1
61 59 1
61 60 1
61 62 1
61 63 1
61 64 1
61 84 1
62 0 1
62 48 1
62 58 1
62 59 1
62 60 1
62 61 1
62 63 1
62 64 1
62 84 1
63 0 1
63 48 1
63 58 1
63 59 1
63 60 1
63 61 1
63 62 1
63 64 1
63 84 1
64 0 1
64 35 1
64 48 1
64 58 1
64 59 1
64 60 1
64 61 1
64 62 1
64 63 1
64 84 1
65 0 1
65 53 1
65 77 1
66 0 1
66 74 1
66 89 1
67 0 1
67 6 1
67 7 1
67 93 1
68 0 1
68 21 1
68 69 1
68 97 1
69 0 1
69 21 1
69 68 1
70 0 1
70 12 1
70 16 1
70 17 1
70 30 1
70 86 1
70 87 1
71 0 1
71 10 1
71 34 1
71 49 1
72 0 1
72 5 1
72 73 1
72 74 1
72 75 1
72 93 1
72 96 1
73 0 1
73 5 1
73 72 1
73 74 1
73 75 1
73 93 1
73 96 1
74 0 1
74 5 1
74 26 1
74 29 1
74 66 1
74 72 1
74 73 1
74 75 1
74 88 1
74 89 1
74 93 1
74 96 1
74 97 1
75 0 1
75 5 1
75 72 1
75 73 1
75 74 1
75 93 1
75 96 1
76 0 1
76 39 1
76 41 1
76 56 1
76 57 1
77 0 1
77 53 1
77 65 1
78 0 1
78 13 1
78 79 1
79 0 1
79 13 1
79 78 1
80 0 1
80 29 1
80 99 1
81 0 1
81 28 1
81 82 1
82 0 1
82 81 1
83 0 1
83 33 1
84 0 1
84 48 1
84 58 1
84 59 1
84 60 1
84 61 1
84 62 1
84 63 1
84 64 1
85 0 1
86 0 1
86 12 1
86 16 1
86 17 1
86 30 1
86 70 1
86 87 1
87 0 1
87 12 1
87 16 1
87 17 1
87 30 1
87 70 1
87 86 1
88 0 1
88 74 1
88 89 1
89 0 1
89 6 1
89 66 1
89 74 1
89 88 1
89 90 1
89 91 1
89 92 1
90 0 1
90 6 1
90 89 1
90 91 1
90 92 1
91 0 1
91 6 1
91 89 1
91 90 1
91 92 1
92 0 1
92 6 1
92 89 1
92 90 1
92 91 1
93 0 1
93 5 1
93 6 1
93 9 1
93 17 1
93 27 1
93 67 1
93 72 1
93 73 1
93 74 1
93 75 1
93 94 1
93 95 1
93 96 1
94 0 1
94 93 1
94 95 1
94 96 1
95 0 1
95 27 1
95 93 1
95 94 1
95 96 1
96 0 1
96 5 1
96 6 1
96 31 1
96 72 1
96 73 1
96 74 1
96 75 1
96 93 1
96 94 1
96 95 1
97 0 1
97 1 1
97 68 1
97 74 1
98 0 1
98 20 1
98 21 1
98 22 1
98 53 1
99 0 1
99 11 1
99 15 1
99 29 1
99 80 1
