%%MatrixMarket matrix coordinate pattern symmetric
% Subgraph extracted from LAW/dblp-2010 (SuiteSparse)
% Seed: 112425, Nodes: 100, Undirected Edges: 397
100 100 397
1 51
1 52
1 53
1 54
1 55
1 56
1 57
1 58
1 59
1 60
1 61
1 62
1 63
1 64
1 65
1 66
1 67
1 68
1 69
1 70
1 71
1 72
1 73
1 74
1 75
1 76
1 77
1 78
1 79
1 80
1 81
1 82
1 83
1 84
1 85
1 86
1 87
1 88
1 89
1 90
1 91
1 92
1 93
1 94
1 95
1 96
1 97
1 98
1 99
1 100
2 1
2 98
3 1
3 34
3 35
3 36
3 40
3 42
3 44
3 49
3 50
4 1
5 1
6 1
6 73
6 74
6 75
6 76
6 94
6 97
7 1
7 68
7 90
7 91
7 92
7 93
7 94
7 97
8 1
8 9
8 10
8 19
8 68
9 1
9 19
10 1
10 19
10 94
11 1
11 37
11 72
12 1
12 13
12 14
12 15
12 16
12 100
13 1
13 17
13 18
13 31
13 71
13 87
13 88
14 1
14 15
14 16
14 79
14 80
15 1
16 1
16 100
17 1
17 18
17 31
17 71
17 87
17 88
18 1
18 28
18 31
18 71
18 87
18 88
18 94
19 1
20 1
21 1
21 22
21 23
21 54
21 99
22 1
22 23
22 54
22 69
22 70
22 99
23 1
23 54
23 99
24 1
24 25
24 26
24 27
25 1
25 26
25 27
26 1
26 27
27 1
27 75
28 1
28 94
28 96
29 1
29 82
30 1
30 75
30 81
30 100
31 1
31 71
31 87
31 88
32 1
32 97
33 1
34 1
34 35
34 36
34 40
34 42
34 44
34 49
34 50
34 84
35 1
35 36
35 40
35 42
35 44
35 49
35 50
35 72
36 1
36 40
36 42
36 44
36 49
36 50
36 65
37 1
37 38
37 39
37 40
37 41
37 42
37 43
37 44
37 45
37 46
37 47
37 48
37 49
37 51
38 1
38 39
38 40
38 41
38 42
38 43
38 44
38 45
38 46
38 47
38 48
38 49
38 51
39 1
39 40
39 41
39 42
39 43
39 44
39 45
39 46
39 47
39 48
39 49
39 51
40 1
40 41
40 42
40 43
40 44
40 45
40 46
40 47
40 48
40 49
40 50
40 51
40 57
40 58
40 77
41 1
41 42
41 43
41 44
41 45
41 46
41 47
41 48
41 49
41 51
42 1
42 43
42 44
42 45
42 46
42 47
42 48
42 49
42 50
42 51
42 57
42 58
42 77
43 1
43 44
43 45
43 46
43 47
43 48
43 49
43 51
44 1
44 45
44 46
44 47
44 48
44 49
44 50
44 51
45 1
45 46
45 47
45 48
45 49
45 51
45 57
46 1
46 47
46 48
46 49
46 51
47 1
47 48
47 49
47 51
48 1
48 49
48 51
49 1
49 50
49 51
49 52
49 53
49 54
49 59
49 60
49 61
49 62
49 63
49 64
49 65
49 85
50 1
50 72
53 54
54 66
54 78
54 99
57 58
57 77
58 77
59 60
59 61
59 62
59 63
59 64
59 65
59 85
60 61
60 62
60 63
60 64
60 65
60 85
61 62
61 63
61 64
61 65
61 85
62 63
62 64
62 65
62 85
63 64
63 65
63 85
64 65
64 85
65 85
66 78
67 75
67 90
68 94
69 70
69 98
71 87
71 88
73 74
73 75
73 76
73 94
73 97
74 75
74 76
74 94
74 97
75 76
75 89
75 90
75 94
75 97
75 98
76 94
76 97
79 80
81 100
82 83
87 88
89 90
90 91
90 92
90 93
91 92
91 93
92 93
94 95
94 96
94 97
95 96
95 97
96 97
